StudentsNr = 10;
InstructorsNr = 14;
DaysNr = 1;
SlotsPerDay = 10;
AvailabilitySlotsLenght = 1;
RoomNr = 2;
ProgrammNr = 2;
DegreeNr = 2;
RolesNr = 4;
CoursesNr = 5;
InstructorsProgramm = [{1}, {1}, {2}, {1}, {1, 2}, {1}, {2}, {2}, {1, 2}, {2}, {1}, {1}, {1}, {1}];
InstructorRolesPerProgramm = [|{1, 6, 9, 11}, {1, 5, 6, 12, 13}, {1, 4, 5, 6, 9, 14}, {2, 5, 6, 13, 14}|{3, 9, 10}, {5, 7, 8}, {5, 8, 9, 10}, {3, 5, 7, 10}|];
InstructorsAvailability = [|0, 1, 1, 1, 1, 0, 1, 1, 1, 1, |1, 1, 1, 1, 1, 1, 1, 1, 1, 1, |1, 0, 0, 0, 1, 1, 1, 1, 1, 1, |0, 1, 1, 1, 1, 1, 1, 0, 0, 1, |1, 1, 1, 1, 1, 0, 1, 1, 1, 1, |1, 1, 0, 1, 1, 1, 1, 1, 1, 1, |0, 1, 0, 1, 0, 1, 1, 1, 1, 1, |0, 1, 1, 1, 1, 1, 1, 1, 1, 1, |1, 1, 1, 0, 1, 0, 1, 1, 1, 1, |0, 1, 1, 1, 1, 1, 0, 0, 1, 1, |0, 1, 1, 1, 1, 1, 1, 1, 1, 1, |0, 0, 1, 0, 1, 1, 1, 1, 1, 1, |0, 0, 1, 1, 1, 1, 1, 1, 1, 1, |0, 0, 1, 1, 1, 1, 1, 1, 1, 1|];
StudentsProgramm = [2, 1, 2, 2, 1, 1, 2, 1, 2, 2];
StudentsDegree = [2, 2, 1, 1, 1, 2, 2, 2, 1, 1];
StudentsSupervisorId = [10, 4, 3, 7, 14, 1, 8, 1, 8, 7];
StudentsCourseIds = [{1, 4, 5}, {2, 3, 5}, {1, 2, 3, 4, 5}, {1, 2, 3, 4, 5}, {1, 2, 3, 4, 5}, {1, 2, 3}, {1, 3, 4}, {1, 2, 5}, {1, 2, 3, 4, 5}, {1, 2, 3, 4, 5}];
StudentsAvailability = [|0, 0, 1, 1, 0, 0, 1, 1, 1, 1, |0, 1, 1, 0, 0, 0, 1, 1, 1, 1, |0, 0, 1, 1, 1, 0, 1, 1, 1, 1, |0, 0, 0, 1, 1, 1, 1, 1, 1, 1, |1, 1, 1, 1, 0, 1, 0, 0, 0, 0, |0, 0, 1, 1, 1, 0, 0, 1, 1, 1, |1, 1, 1, 1, 1, 1, 1, 1, 1, 1, |0, 0, 1, 1, 1, 1, 1, 1, 1, 1, |1, 1, 1, 1, 1, 1, 0, 0, 1, 1, |0, 1, 0, 1, 1, 1, 1, 1, 1, 1|];
TheoryticalMinCard = [0, 0, 0, 0, 0, 0, 0, 0, 0, 0];
CoursesInstructorIds = [{5, 13, 14}, {4, 8}, {1, 2, 3, 5, 8, 9}, {1, 3, 5, 6, 7, 8, 11, 12}, {2, 3, 8, 10, 11, 12}];
RolesDemands = [2, 3, 4, 4];
RolesContinuity = [];
ExamLen = [2, 2, 2, 2, 2, 2, 2, 2, 2, 2];
LunchTsMinLen = 2;
LunchStarts = [4..6];
SupervisorAvailable = 5;
OptimalLunchLenght = [0, 3];
OptimalStartTs = [2, 0];
OptimalFinishTs = [1, 9];
MinimizeRooms = 0;
RolesSoftContinuity = [|1, 2, 3, 4|1, 3, 4, 3|];
SameDegreeInRoom = 0;
Mergeability = 1;
